sets/C/cp-n36-kk.vrp
NAME : (null)
COMMENT : (null)
TYPE : CVRP
DIMENSION : 36
EDGE_WEIGHT_TYPE : EUC_2D
CAPACITY : 75
NODE_COORD_SECTION
 1  29  23
 2  16  24
 3  27  16
 4  17  14
 5  19  35
 6  29  13
 7  10  12
 8  25   3
 9   9  26
10  31  11
11  12  30
12  14  29
13   8  19
14  33  30
15   2  10
16  20  23
17  23   0
18   6  22
19  24   4
20  30   7
21   3  19
22   7  29
23  22   9
24  19  23
25  29  35
26  18   7
27   3  12
28   0   5
29  35  16
30  17   5
31  27  13
32  20  12
33  31  10
34   5  17
35  26  16
36  19  22
DEMAND_SECTION
 1   0
 2   2
 3  12
 4  19
 5  16
 6  17
 7   3
 8   8
 9  20
10  19
11   5
12   3
13  12
14   6
15   8
16  12
17   2
18  10
19  23
20   8
21  17
22  18
23   9
24  23
25   5
26  15
27  22
28  18
29   8
30   6
31  15
32  14
33  12
34   7
35  23
36  11
DEPOT_SECTION
 1
-1
EOF