sets/C/cp-n36-kk.opt
Route #1: 15 23 4 24 13
Route #2: 28 32 9 34 2
Route #3: 20 33 26 14 27 6
Route #4: 30 18 16 7 19 5
Route #5: 11 10 21 8 17 12 1
Route #6: 35 3 25 29 22 31
cost 311
